data/solutions/recovery/wellformed/intermediate/binding/wellformed_intermediate_instance84/46.sol
Elapsed time: 22.54
Upper bound: 157274.0
Planning weighted value: 8291868864.0
C[0]=157274.0
C[1]=157245.0
C[2]=157240.0
C[3]=157210.0
C[4]=157130.0
C[5]=156936.0
C[6]=156806.0
C[7]=156749.0
C[8]=156709.0
C[9]=156676.0
C[10]=156660.0
C[11]=156436.0
C[12]=156050.0
C[13]=155797.0
C[14]=0.0
C[15]=0.0
y[0]=0
y[1]=13
y[2]=8
y[3]=2
y[4]=1
y[5]=7
y[6]=9
y[7]=6
y[8]=1
y[9]=7
y[10]=10
y[11]=4
y[12]=11
y[13]=11
y[14]=4
y[15]=11
y[16]=10
y[17]=10
y[18]=10
y[19]=3
y[20]=10
y[21]=4
y[22]=10
y[23]=9
y[24]=8
y[25]=9
y[26]=3
y[27]=5
y[28]=3
y[29]=7
y[30]=8
y[31]=1
y[32]=13
y[33]=6
y[34]=10
y[35]=4
y[36]=0
y[37]=9
y[38]=3
y[39]=9
y[40]=0
y[41]=2
y[42]=12
y[43]=4
y[44]=8
y[45]=13
y[46]=1
y[47]=5
y[48]=0
y[49]=12
y[50]=1
y[51]=5
y[52]=9
y[53]=3
y[54]=9
y[55]=5
y[56]=11
y[57]=10
y[58]=9
y[59]=10
y[60]=13
y[61]=10
y[62]=13
y[63]=5
y[64]=2
y[65]=12
y[66]=2
y[67]=10
y[68]=2
y[69]=1
y[70]=7
y[71]=4
y[72]=3
y[73]=3
y[74]=10
y[75]=5
y[76]=0
y[77]=6
y[78]=1
y[79]=12
y[80]=7
y[81]=13
y[82]=1
y[83]=3
y[84]=9
y[85]=13
y[86]=8
y[87]=5
y[88]=6
y[89]=2
y[90]=5
y[91]=0
y[92]=7
y[93]=5
y[94]=3
y[95]=3
y[96]=11
y[97]=10
y[98]=7
y[99]=10
y[100]=7
y[101]=3
y[102]=11
y[103]=7
y[104]=11
y[105]=11
y[106]=7
y[107]=11
y[108]=11
y[109]=13
y[110]=11
y[111]=5
y[112]=6
y[113]=13
y[114]=2
y[115]=8
y[116]=12
y[117]=12
y[118]=8
y[119]=7
y[120]=8
y[121]=10
y[122]=2
y[123]=12
y[124]=7
y[125]=6
y[126]=1
y[127]=5
y[128]=3
y[129]=2
y[130]=8
y[131]=5
y[132]=0
y[133]=11
y[134]=13
y[135]=8
y[136]=4
y[137]=5
y[138]=13
y[139]=4
y[140]=13
y[141]=9
y[142]=0
y[143]=12
y[144]=8
y[145]=6
y[146]=12
y[147]=11
y[148]=2
y[149]=5
y[150]=0
y[151]=13
y[152]=9
y[153]=10
y[154]=4
y[155]=12
y[156]=12
y[157]=12
y[158]=12
y[159]=5
y[160]=0
y[161]=5
y[162]=4
y[163]=12
y[164]=12
y[165]=10
y[166]=10
y[167]=0
y[168]=0
y[169]=10
y[170]=4
y[171]=13
y[172]=4
y[173]=12
y[174]=11
y[175]=0
y[176]=11
y[177]=2
y[178]=9
y[179]=6
y[180]=2
y[181]=10
y[182]=11
y[183]=6
y[184]=0
y[185]=2
y[186]=10
y[187]=1
y[188]=1
y[189]=6
y[190]=8
y[191]=6
y[192]=4
y[193]=6
y[194]=10
y[195]=8
y[196]=5
y[197]=5
y[198]=8
y[199]=11
y[200]=13
y[201]=3
y[202]=9
y[203]=10
y[204]=13
y[205]=2
y[206]=7
y[207]=4
y[208]=1
y[209]=1
y[210]=12
y[211]=11
y[212]=5
y[213]=9
