data/solutions/recovery/wellformed/intermediate/binding/wellformed_intermediate_instance84/46.log

Log started (V12.6.3.0) Fri Apr 20 21:23:57 2018

New value for default parallel thread count: 1

Problem '/tmp/tmpCSx7pC.pyomo.lp' read.
Read time = 0.08 sec. (7.84 ticks)

Problem name         : /tmp/tmpCSx7pC.pyomo.lp
Objective sense      : Minimize
Variables            :    3442  [Nneg: 1,  Binary: 3424,  General Integer: 17]
Objective nonzeros   :       1
Linear constraints   :     463  [Less: 230,  Equal: 233]
  Nonzeros           :  578577
  RHS nonzeros       :     215

Variables            : Min LB: 0.000000         Max UB: 1.000000       
Objective nonzeros   : Min   : 1.000000         Max   : 1.000000       
Linear constraints   :
  Nonzeros           : Min   : 1.000000         Max   : 19973.00       
  RHS nonzeros       : Min   : 1.000000         Max   : 1.000000       
Tried aggregator 2 times.
MIP Presolve eliminated 401 rows and 2951 columns.
Aggregator did 14 substitutions.
Reduced MIP has 48 rows, 477 columns, and 966 nonzeros.
Reduced MIP has 476 binaries, 1 generals, 0 SOSs, and 0 indicators.
Presolve time = 0.02 sec. (36.68 ticks)
Found incumbent of value 543607.000000 after 0.04 sec. (50.28 ticks)
Probing time = 0.00 sec. (0.65 ticks)
Tried aggregator 1 time.
Reduced MIP has 48 rows, 477 columns, and 966 nonzeros.
Reduced MIP has 476 binaries, 1 generals, 0 SOSs, and 0 indicators.
Presolve time = 0.00 sec. (0.79 ticks)
Probing time = 0.00 sec. (0.65 ticks)
Clique table members: 34.
MIP emphasis: balance optimality and feasibility.
MIP search method: dynamic search.
Parallel mode: none, using 1 thread.
Root relaxation solution time = 0.00 sec. (1.00 ticks)

        Nodes                                         Cuts/
   Node  Left     Objective  IInf  Best Integer    Best Bound    ItCnt     Gap

*     0+    0                       543607.0000   141813.0000            73.91%
      0     0   156779.8571    24   543607.0000   156779.8571       86   71.16%
*     0+    0                       166365.0000   156779.8571             5.76%
      0     0   156780.0000    27   166365.0000      Fract: 6      110    5.76%
*     0+    0                       162855.0000   156780.0000             3.73%
      0     0   156780.0000    42   162855.0000      Cuts: 24      187    3.73%
*     0+    0                       162551.0000   156780.0000             3.55%
*     0+    0                       162510.0000   156780.0000             3.53%
*     0+    0                       161555.0000   156780.0000             2.96%
      0     2   156780.0000    20   161555.0000   156780.0000      187    2.96%
Elapsed time = 0.07 sec. (77.94 ticks, tree = 0.01 MB, solutions = 6)
*    10+   10                       161532.0000   156780.0000             2.94%
*    20+   20                       161516.0000   156780.0000             2.93%
*    30+   30                       161498.0000   156780.0000             2.92%
*    40+   38                       161369.0000   156780.0000             2.84%
*    50+   46                       161027.0000   156780.0000             2.64%
*    50+   46                       160892.0000   156780.0000             2.56%
*    60+   56                       160631.0000   156780.0000             2.40%
*    60+   56                       160421.0000   156780.0000             2.27%
*    70+   66                       160066.0000   156780.0000             2.05%
*    80+   74                       159776.0000   156780.0000             1.88%
*    90+   84                       159402.0000   156780.0000             1.64%
*   100+   90                       159310.0000   156780.0000             1.59%
*   110+  100                       159279.0000   156780.0000             1.57%
*   170+  160                       159224.0000   156780.0000             1.53%
*   270+  249                       158922.0000   156780.0000             1.35%
*   300+  246                       158885.0000   156780.0000             1.32%
*   496+  394                       158658.0000   156780.0000             1.18%
*   496+  392                       158552.0000   156780.0000             1.12%
*   496+  365                       158179.0000   156780.0000             0.88%
*   496+  365                       158175.0000   156780.0000             0.88%
*   497+  244                       158057.0000   156780.0000             0.81%
    527   262   156780.0000    21   158057.0000   156780.0000     3404    0.81%
    528   263   156780.0000    21   158057.0000   156780.0000     3405    0.81%
    529   264   156780.0000    22   158057.0000   156780.0000     3407    0.81%
    530   264   156780.0000    22   158057.0000   156780.0000     3411    0.81%
    531   265   156780.0000    21   158057.0000   156780.0000     3414    0.81%
    532   265   156780.0000    21   158057.0000   156780.0000     3415    0.81%
    533   266   156780.0000    21   158057.0000   156780.0000     3416    0.81%
    534   267   156780.0000    22   158057.0000   156780.0000     3417    0.81%
    535   267   156780.0000    22   158057.0000   156780.0000     3418    0.81%
*   597+  216                       158040.0000   156780.0000             0.80%
*   597+  170                       157800.0000   156780.0000             0.65%
*   597+  139                       157798.0000   156780.0000             0.65%
*   797+  237                       157791.0000   156780.0000             0.64%
*   797+  231                       157572.0000   156780.0000             0.50%
*   897+  314                       157554.0000   156780.0000             0.49%
*   897+  308                       157448.0000   156780.0000             0.42%
*   897+  308                       157441.0000   156780.0000             0.42%
*   897+  308                       157403.0000   156780.0000             0.40%
*  1397+  539                       157274.0000   156780.0000             0.31%
   1497   617   157029.5000    29   157274.0000   156780.0000     6899    0.31%
Elapsed time = 0.97 sec. (1091.74 ticks, tree = 0.25 MB, solutions = 37)
   5734  4095   156950.2522    43   157274.0000   156780.0000    34450    0.31%
   5735  4096   156958.8313    39   157274.0000   156780.0000    34454    0.31%
   5736  4097   156966.6796    46   157274.0000   156780.0000    34462    0.31%
   5737  4098   156967.6628    45   157274.0000   156780.0000    34474    0.31%
   5738  4099   156967.6767    44   157274.0000   156780.0000    34475    0.31%
   5739  4100   157223.6480    42   157274.0000   156780.0000    34497    0.31%
   5740  4101   157223.6480    41   157274.0000   156780.0000    34498    0.31%
   5741  4100   157223.6480    40   157274.0000   156780.0000    34499    0.31%
   5742  4099        cutoff         157274.0000   156780.0000    34500    0.31%
   5743  4098        cutoff         157274.0000   156780.0000    34563    0.31%
Elapsed time = 1.75 sec. (2048.21 ticks, tree = 1.66 MB, solutions = 37)
   8939  6539   157092.0000    28   157274.0000   156780.0000    74455    0.31%
   8940  6540   157092.0000    28   157274.0000   156780.0000    74470    0.31%
   8941  6541   157092.0000    30   157274.0000   156780.0000    74493    0.31%
   8942  6542   157092.0000    35   157274.0000   156780.0000    74511    0.31%
   8943  6543   157092.0000    34   157274.0000   156780.0000    74513    0.31%
   8944  6544   157092.0000    33   157274.0000   156780.0000    74540    0.31%
   8945  6545   157092.0000    31   157274.0000   156780.0000    74571    0.31%
   8946  6546   157092.0000    30   157274.0000   156780.0000    74586    0.31%
   8947  6547   157092.0000    28   157274.0000   156780.0000    74592    0.31%
   8948  6548   157092.0000    28   157274.0000   156780.0000    74593    0.31%
Elapsed time = 2.49 sec. (3004.24 ticks, tree = 2.50 MB, solutions = 37)
  11423  8428   156780.0000    48   157274.0000   156780.0000   112156    0.31%
  11424  8429   156780.0000    47   157274.0000   156780.0000   112159    0.31%
  11425  8430   156802.6392    48   157274.0000   156780.0000   112229    0.31%
  11426  8431   156802.6392    48   157274.0000   156780.0000   112230    0.31%
  11427  8432   156802.7295    48   157274.0000   156780.0000   112231    0.31%
  11428  8433   156802.7295    49   157274.0000   156780.0000   112240    0.31%
  11429  8434   156837.8926    48   157274.0000   156780.0000   112252    0.31%
  11430  8435   156869.2325    44   157274.0000   156780.0000   112257    0.31%
  11431  8436   156885.4647    48   157274.0000   156780.0000   112279    0.31%
  11432  8437   156888.7693    47   157274.0000   156780.0000   112284    0.31%
Elapsed time = 3.25 sec. (3960.63 ticks, tree = 3.40 MB, solutions = 37)
  13115  9452        cutoff         157274.0000   156780.0000   154110    0.31%
  13116  9451        cutoff         157274.0000   156780.0000   154278    0.31%
  13117  9452   156831.0000    62   157274.0000   156780.0000   154501    0.31%
  13118  9453   156832.8893    58   157274.0000   156780.0000   154575    0.31%
  13119  9454   156832.9212    58   157274.0000   156780.0000   154576    0.31%
  13120  9455   156840.4531    58   157274.0000   156780.0000   154582    0.31%
  13121  9456   156840.4981    58   157274.0000   156780.0000   154584    0.31%
  13122  9457   156840.8926    58   157274.0000   156780.0000   154586    0.31%
  13123  9458   156840.9053    60   157274.0000   156780.0000   154589    0.31%
  13124  9459   157016.4706    45   157274.0000   156780.0000   154691    0.31%
Elapsed time = 3.95 sec. (4927.99 ticks, tree = 3.76 MB, solutions = 37)
  14731 10495        cutoff         157274.0000   156780.0000   198246    0.31%
  14732 10494        cutoff         157274.0000   156780.0000   198470    0.31%
  14733 10495   156795.5020    53   157274.0000   156780.0000   198640    0.31%
  14734 10496   156795.6650    53   157274.0000   156780.0000   198642    0.31%
  14735 10497   156795.6650    49   157274.0000   156780.0000   198657    0.31%
  14736 10498   156831.7777    45   157274.0000   156780.0000   198699    0.31%
  14737 10499   156831.7777    45   157274.0000   156780.0000   198700    0.31%
  14738 10500   156831.7777    44   157274.0000   156780.0000   198702    0.31%
  14739 10501   156881.5435    42   157274.0000   156780.0000   198727    0.31%
  14740 10502   156957.0136    56   157274.0000   156780.0000   198817    0.31%
Elapsed time = 4.65 sec. (5899.33 ticks, tree = 4.12 MB, solutions = 37)
  16421 11663   156895.1335    47   157274.0000   156780.0000   240878    0.31%
  16422 11664   156909.2026    38   157274.0000   156780.0000   240887    0.31%
  16423 11665   156909.2026    39   157274.0000   156780.0000   240894    0.31%
  16424 11666   156998.5697    27   157274.0000   156780.0000   240913    0.31%
  16425 11667   157127.9957    27   157274.0000   156780.0000   240933    0.31%
  16426 11668   157127.9957    27   157274.0000   156780.0000   240935    0.31%
  16427 11669   157127.9957    25   157274.0000   156780.0000   240936    0.31%
  16428 11670   157214.1692    21   157274.0000   156780.0000   240951    0.31%
  16429 11671   157214.1692    19   157274.0000   156780.0000   240954    0.31%
  16430 11672   157214.1692    18   157274.0000   156780.0000   240956    0.31%
Elapsed time = 5.33 sec. (6854.90 ticks, tree = 4.53 MB, solutions = 37)
  18323 13077   156849.2076    56   157274.0000   156780.0000   282595    0.31%
  18324 13078   156849.8351    56   157274.0000   156780.0000   282597    0.31%
  18325 13079   156849.8351    56   157274.0000   156780.0000   282601    0.31%
  18326 13080   156849.8351    50   157274.0000   156780.0000   282618    0.31%
  18327 13081   156849.8351    47   157274.0000   156780.0000   282634    0.31%
  18328 13082   156849.8351    49   157274.0000   156780.0000   282636    0.31%
  18329 13083   156849.8351    47   157274.0000   156780.0000   282637    0.31%
  18330 13084   156849.8351    48   157274.0000   156780.0000   282640    0.31%
  18331 13085   156915.7317    46   157274.0000   156780.0000   282668    0.31%
  18332 13086   156915.7317    50   157274.0000   156780.0000   282669    0.31%
Elapsed time = 6.04 sec. (7811.24 ticks, tree = 5.01 MB, solutions = 37)
  19727 13996   156893.4123    53   157274.0000   156780.0000   321276    0.31%
  19728 13997   156893.4353    53   157274.0000   156780.0000   321277    0.31%
  19729 13998   156893.4353    51   157274.0000   156780.0000   321279    0.31%
  19730 13999   156899.7564    51   157274.0000   156780.0000   321322    0.31%
  19731 14000   156933.5451    47   157274.0000   156780.0000   321431    0.31%
  19732 14001   157003.7463    40   157274.0000   156780.0000   321443    0.31%
  19733 14002   157010.9957    35   157274.0000   156780.0000   321466    0.31%
  19734 14001        cutoff         157274.0000   156780.0000   321479    0.31%
  19735 14000        cutoff         157274.0000   156780.0000   321489    0.31%
  19736 14001   156939.1353    63   157274.0000   156780.0000   321661    0.31%
Elapsed time = 6.73 sec. (8774.66 ticks, tree = 5.33 MB, solutions = 37)
  21035 14733   157071.7557    39   157274.0000   156780.0000   361551    0.31%
  21036 14734   157105.3462    38   157274.0000   156780.0000   361553    0.31%
  21037 14735   157107.5736    34   157274.0000   156780.0000   361555    0.31%
  21038 14736   157176.2562    37   157274.0000   156780.0000   361573    0.31%
  21039 14736   157176.2562    38   157274.0000   156780.0000   361578    0.31%
  21040 14736   157225.5230    37   157274.0000   156780.0000   361586    0.31%
  21041 14735        cutoff         157274.0000   156780.0000   361587    0.31%
  21042 14736   156848.5911    59   157274.0000   156780.0000   361766    0.31%
  21043 14737   156848.5911    59   157274.0000   156780.0000   361777    0.31%
  23565 15774   157130.0000    24   157274.0000   156780.0000   469656    0.31%
Elapsed time = 9.44 sec. (12593.89 ticks, tree = 6.25 MB, solutions = 37)
  28347 16237   157033.2357    49   157274.0000   156829.9886   620908    0.28%
  28348 16238   157101.5340    45   157274.0000   156829.9886   620915    0.28%
  28349 16237    infeasible         157274.0000   156829.9886   620915    0.28%
  28350 16236    infeasible         157274.0000   156829.9886   620915    0.28%
  28351 16237   156976.5893    52   157274.0000   156829.9886   620973    0.28%
  28352 16238   157036.9099    51   157274.0000   156829.9886   620978    0.28%
  28353 16239   157039.6543    47   157274.0000   156829.9886   620983    0.28%
  28354 16240   157059.0950    40   157274.0000   156829.9886   620995    0.28%
  28355 16239        cutoff         157274.0000   156829.9886   621001    0.28%
  28356 16238    infeasible         157274.0000   156829.9886   621001    0.28%
Elapsed time = 12.22 sec. (16411.48 ticks, tree = 6.50 MB, solutions = 37)
  34171 15724   157177.9451    31   157274.0000   156894.9896   778393    0.24%
  34172 15723    infeasible         157274.0000   156894.9896   778393    0.24%
  34173 15722        cutoff         157274.0000   156895.0471   778417    0.24%
  34174 15721    infeasible         157274.0000   156895.0602   778417    0.24%
  34175 15720        cutoff         157274.0000   156895.0602   778429    0.24%
  34176 15719        cutoff         157274.0000   156895.1161   778445    0.24%
  34177 15718    infeasible         157274.0000   156895.1653   778445    0.24%
  34178 15717    infeasible         157274.0000   156895.1948   778445    0.24%
  34179 15716    infeasible         157274.0000   156895.2066   778472    0.24%
  34180 15715    infeasible         157274.0000   156895.2138   778472    0.24%
Elapsed time = 14.95 sec. (20228.31 ticks, tree = 6.35 MB, solutions = 37)
  41749 12545        cutoff         157274.0000   156983.4999   936746    0.18%
  41750 12544        cutoff         157274.0000   156983.4999   936748    0.18%
  41751 12545   157088.9999    41   157274.0000   156983.5275   936801    0.18%
  41752 12545   157091.2065    37   157274.0000   156983.5275   936802    0.18%
  41753 12546   157092.0000    36   157274.0000   156983.5275   936805    0.18%
  41754 12547   157092.0000    37   157274.0000   156983.5275   936817    0.18%
  41755 12548   157231.0000    30   157274.0000   156983.5275   936919    0.18%
  41756 12548   157231.0000    42   157274.0000   156983.5275   936926    0.18%
  41757 12547        cutoff         157274.0000   156983.5275   936928    0.18%
  41758 12546        cutoff         157274.0000   156983.5680   936944    0.18%
Elapsed time = 17.74 sec. (24047.47 ticks, tree = 5.18 MB, solutions = 37)
  53152  5347   157173.5191    45   157274.0000   157173.5191  1086384    0.06%
  53153  5346        cutoff         157274.0000   157173.5191  1086388    0.06%
  53154  5345        cutoff         157274.0000   157173.5191  1086391    0.06%
  53155  5344        cutoff         157274.0000   157173.7039  1086398    0.06%
  53156  5343        cutoff         157274.0000   157173.7312  1086400    0.06%
  53157  5342        cutoff         157274.0000   157173.8210  1086416    0.06%
  53158  5341        cutoff         157274.0000   157173.8297  1086432    0.06%
  53159  5340    infeasible         157274.0000   157173.9001  1086432    0.06%
  53160  5339        cutoff         157274.0000   157173.9439  1086435    0.06%
  53161  5338    infeasible         157274.0000   157173.9439  1086435    0.06%
Elapsed time = 20.64 sec. (27864.88 ticks, tree = 2.42 MB, solutions = 37)

Cover cuts applied:  207
Mixed integer rounding cuts applied:  29
Lift and project cuts applied:  1
Gomory fractional cuts applied:  4

Root node processing (before b&c):
  Real time             =    0.07 sec. (78.83 ticks)
Sequential b&c:
  Real time             =   22.36 sec. (30120.89 ticks)
                          ------------
Total (root+branch&cut) =   22.43 sec. (30199.71 ticks)

Solution pool: 37 solutions saved.

MIP - Integer optimal, tolerance (0.0001/1e-06):  Objective =  1.5727400000e+05
Current MIP best bound =  1.5725830309e+05 (gap = 15.6969, 0.01%)
Solution time =   22.43 sec.  Iterations = 1188864  Nodes = 61427 (291)
Deterministic time = 30199.72 ticks  (1346.48 ticks/sec)


Incumbent solution written to file '/tmp/tmpLiKhmI.cplex.sol'.
